p tdp 20 134
1 2
1 3
1 5
1 6
1 7
1 8
1 11
1 12
1 13
1 14
1 15
1 16
1 18
1 19
1 20
2 3
2 4
2 5
2 6
2 7
2 8
2 9
2 10
2 11
2 13
2 16
2 17
2 18
2 19
3 4
3 5
3 7
3 8
3 9
3 11
3 12
3 15
3 16
3 17
3 18
3 19
4 7
4 8
4 9
4 11
4 12
4 13
4 15
4 17
4 18
4 20
5 6
5 7
5 8
5 10
5 11
5 12
5 13
5 14
5 15
5 16
5 17
5 18
5 20
6 11
6 14
6 16
6 17
6 18
6 19
7 9
7 10
7 12
7 13
7 15
7 16
7 18
7 19
8 9
8 10
8 11
8 12
8 13
8 14
8 15
8 16
8 17
8 18
8 19
8 20
9 12
9 13
9 14
9 15
9 17
9 19
9 20
10 12
10 13
10 15
10 17
10 18
10 20
11 13
11 15
11 16
11 19
12 13
12 14
12 15
12 16
12 19
13 15
13 16
13 17
13 18
13 20
14 15
14 16
14 17
14 19
14 20
15 17
15 18
15 19
15 20
16 17
16 18
16 19
16 20
17 18
17 19
18 20
19 20
